p edge 125 316
e 1 2
e 1 4
e 1 7
e 1 11
e 1 15
e 1 21
e 1 31
e 1 47
e 1 52
e 1 54
e 1 82
e 1 96
e 1 102
e 1 112
e 1 113
e 2 5
e 2 7
e 2 12
e 2 13
e 2 14
e 2 19
e 2 21
e 2 31
e 2 35
e 2 53
e 2 83
e 2 84
e 2 96
e 2 112
e 2 113
e 3 10
e 3 24
e 3 25
e 3 49
e 3 58
e 3 59
e 3 91
e 3 101
e 4 10
e 4 18
e 4 51
e 4 65
e 4 74
e 4 76
e 4 102
e 4 114
e 4 115
e 5 9
e 5 12
e 5 13
e 5 14
e 5 15
e 5 21
e 5 26
e 5 47
e 5 52
e 5 125
e 6 17
e 6 26
e 6 27
e 6 28
e 6 34
e 7 12
e 7 13
e 7 14
e 7 21
e 7 35
e 7 96
e 8 12
e 8 41
e 8 61
e 8 66
e 9 11
e 9 28
e 9 29
e 9 30
e 9 32
e 9 80
e 10 51
e 10 63
e 10 64
e 10 74
e 10 78
e 10 98
e 11 15
e 11 17
e 11 19
e 11 29
e 11 30
e 11 77
e 11 80
e 12 21
e 12 26
e 12 37
e 12 41
e 12 47
e 12 73
e 13 14
e 13 21
e 13 26
e 13 27
e 13 52
e 13 73
e 13 109
e 13 110
e 14 19
e 14 35
e 15 26
e 15 27
e 15 33
e 15 52
e 15 70
e 15 81
e 16 24
e 16 25
e 16 38
e 16 45
e 16 65
e 16 69
e 16 71
e 16 94
e 17 19
e 17 77
e 17 111
e 18 42
e 18 76
e 18 86
e 18 114
e 18 115
e 19 32
e 19 77
e 19 85
e 20 23
e 20 35
e 20 36
e 20 50
e 20 55
e 20 58
e 20 75
e 20 120
e 21 31
e 21 33
e 21 47
e 21 112
e 21 113
e 22 30
e 22 36
e 22 37
e 22 39
e 22 44
e 22 86
e 22 87
e 22 89
e 22 90
e 22 99
e 23 24
e 23 35
e 23 55
e 23 58
e 23 75
e 24 25
e 24 33
e 24 45
e 24 49
e 24 65
e 24 71
e 25 32
e 25 49
e 26 27
e 26 28
e 26 52
e 26 73
e 26 110
e 27 28
e 27 37
e 27 52
e 27 73
e 27 110
e 28 32
e 28 40
e 28 43
e 29 30
e 29 32
e 29 39
e 29 80
e 29 87
e 30 32
e 30 39
e 30 44
e 30 72
e 30 87
e 31 70
e 31 79
e 31 97
e 31 112
e 31 113
e 32 43
e 32 85
e 33 70
e 33 79
e 33 81
e 33 82
e 34 40
e 34 54
e 34 55
e 35 55
e 35 58
e 35 75
e 35 91
e 35 93
e 36 38
e 36 44
e 36 50
e 37 39
e 37 41
e 37 72
e 37 89
e 37 90
e 38 44
e 38 56
e 38 78
e 38 92
e 39 44
e 39 72
e 39 87
e 39 89
e 39 90
e 40 43
e 40 55
e 40 83
e 41 50
e 41 60
e 42 86
e 42 116
e 42 117
e 44 87
e 45 69
e 45 71
e 45 94
e 46 48
e 46 60
e 46 100
e 46 118
e 48 53
e 49 108
e 50 57
e 50 80
e 51 62
e 51 74
e 51 95
e 51 105
e 51 106
e 52 54
e 52 73
e 52 110
e 53 59
e 53 67
e 53 83
e 53 84
e 54 68
e 55 58
e 55 75
e 56 63
e 56 78
e 57 60
e 57 76
e 57 80
e 58 59
e 58 75
e 58 101
e 59 67
e 59 84
e 59 101
e 60 100
e 61 66
e 61 121
e 62 64
e 62 74
e 62 95
e 63 78
e 63 98
e 64 88
e 64 122
e 64 123
e 64 124
e 65 71
e 67 84
e 67 119
e 68 77
e 68 107
e 69 94
e 70 81
e 72 89
e 72 90
e 73 110
e 74 95
e 75 120
e 76 114
e 76 115
e 78 98
e 79 82
e 83 84
e 86 99
e 88 122
e 88 123
e 88 124
e 89 90
e 91 93
e 103 104
e 105 106
e 112 113
e 114 115
e 116 117
e 122 123
e 122 124
e 123 124
